
Gurobi 11.0.3 (linux64) logging started Mon 18 Nov 2024 10:56:57 PM CST

Set parameter LogFile to value "/home/dlcole3/graph_abstraction/hierarchical_graphs/git_storage/CS1/HP_low_reserves/gurobi_logs/serial/logfile_ST19_6.log"

Gurobi 11.0.3 (linux64) logging started Mon 18 Nov 2024 10:58:49 PM CST

Set parameter LogFile to value "/home/dlcole3/graph_abstraction/hierarchical_graphs/git_storage/CS1/HP_low_reserves/gurobi_logs/serial/logfile_ST19_6.log"
Gurobi Optimizer version 11.0.3 build v11.0.3rc0 (linux64 - "Ubuntu 18.04.3 LTS")

CPU model: Intel(R) Xeon(R) CPU E5-2698 v4 @ 2.20GHz, instruction set [SSE2|AVX|AVX2]
Thread count: 40 physical cores, 80 logical processors, using up to 20 threads

Optimize a model with 29168 rows, 50688 columns and 136175 nonzeros
Model fingerprint: 0xf577a870
Variable types: 46944 continuous, 3744 integer (3744 binary)
Coefficient statistics:
  Matrix range     [6e-01, 2e+04]
  Objective range  [2e+00, 2e+04]
  Bounds range     [5e-02, 2e+05]
  RHS range        [5e-02, 7e+03]
Presolve removed 13484 rows and 38225 columns
Presolve time: 0.35s
Presolved: 15684 rows, 12463 columns, 66079 nonzeros
Variable types: 9463 continuous, 3000 integer (3000 binary)
Found heuristic solution: objective 172829.11438
Found heuristic solution: objective 167357.35920
Found heuristic solution: objective 137340.25374

Root relaxation: objective 3.503201e+04, 7799 iterations, 0.34 seconds (0.24 work units)

    Nodes    |    Current Node    |     Objective Bounds      |     Work
 Expl Unexpl |  Obj  Depth IntInf | Incumbent    BestBd   Gap | It/Node Time

     0     0 35032.0059    0    9 137340.254 35032.0059  74.5%     -    1s
H    0     0                    137340.25371 35032.0059  74.5%     -    1s
H    0     0                    36233.480193 35032.0059  3.32%     -    1s
H    0     0                    36233.480124 35056.4335  3.25%     -    1s
     0     0 35056.4335    0    9 36233.4801 35056.4335  3.25%     -    1s
     0     0 35056.4335    0    2 36233.4801 35056.4335  3.25%     -    2s
     0     0 35092.1171    0    2 36233.4801 35092.1171  3.15%     -    2s
     0     0 35115.7564    0    2 36233.4801 35115.7564  3.08%     -    2s
     0     2 35115.7564    0    2 36233.4801 35115.7564  3.08%     -    2s
H   11    12                    35229.647385 35115.7564  0.32%   6.3    2s
H   21     6                    35153.026032 35115.7564  0.11%   4.0    3s

Explored 22 nodes (14521 simplex iterations) in 3.05 seconds (1.82 work units)
Thread count was 20 (of 80 available processors)

Solution count 8: 35153 35153 35229.6 ... 180521

Optimal solution found (tolerance 3.00e-03)
Best objective 3.515302603287e+04, best bound 3.511575641498e+04, gap 0.1060%

User-callback calls 1709, time in user-callback 0.00 sec
